c *********************************
c * Circuit generated by BenCGen
c *
c * Parity_21
c *
c * Ports with 1 gate(s): 1
c * Ports with 2 gate(s): 21
c * Total gates: 22
c *********************************
p cnf 43 85
1 24 0
-1 -24 0
1 -23 0
24 -23 0
-1 -24 23 0
1 2 -25 0
-1 2 25 0
1 -2 25 0
-1 -2 -25 0
3 4 -26 0
-3 4 26 0
3 -4 26 0
-3 -4 -26 0
5 6 -27 0
-5 6 27 0
5 -6 27 0
-5 -6 -27 0
7 8 -28 0
-7 8 28 0
7 -8 28 0
-7 -8 -28 0
9 10 -29 0
-9 10 29 0
9 -10 29 0
-9 -10 -29 0
11 12 -30 0
-11 12 30 0
11 -12 30 0
-11 -12 -30 0
13 14 -31 0
-13 14 31 0
13 -14 31 0
-13 -14 -31 0
15 16 -32 0
-15 16 32 0
15 -16 32 0
-15 -16 -32 0
17 18 -33 0
-17 18 33 0
17 -18 33 0
-17 -18 -33 0
19 20 -34 0
-19 20 34 0
19 -20 34 0
-19 -20 -34 0
25 26 -35 0
-25 26 35 0
25 -26 35 0
-25 -26 -35 0
27 28 -36 0
-27 28 36 0
27 -28 36 0
-27 -28 -36 0
29 30 -37 0
-29 30 37 0
29 -30 37 0
-29 -30 -37 0
31 32 -38 0
-31 32 38 0
31 -32 38 0
-31 -32 -38 0
33 34 -39 0
-33 34 39 0
33 -34 39 0
-33 -34 -39 0
35 36 -40 0
-35 36 40 0
35 -36 40 0
-35 -36 -40 0
37 38 -41 0
-37 38 41 0
37 -38 41 0
-37 -38 -41 0
39 21 -42 0
-39 21 42 0
39 -21 42 0
-39 -21 -42 0
40 41 -43 0
-40 41 43 0
40 -41 43 0
-40 -41 -43 0
43 42 -22 0
-43 42 22 0
43 -42 22 0
-43 -42 -22 0
